Rh(111) 3x3 + CO2 hcp_hollow
 1.0000000000000000
     8.0610173055266419    0.0000000000000000    0.0000000000000000
     4.0305086527633209    6.9810457669320556    0.0000000000000000
     0.0000000000000000    0.0000000000000000   20.3878620458411532
 Rh  C  O
 27  1  2
Selective dynamics
Cartesian
  1.3435028842544403  0.7756717518813394  0.0000000000000000   F   F   F
  4.0305086527633209  0.7756717518813394  0.0000000000000000   F   F   F
  6.7175144212722024  0.7756717518813394  0.0000000000000000   F   F   F
  2.6870057685088806  3.1026870075253576  0.0000000000000000   F   F   F
  5.3740115370177612  3.1026870075253576  0.0000000000000000   F   F   F
  8.0610173055266419  3.1026870075253576  0.0000000000000000   F   F   F
  4.0305086527633209  5.4297022631693759  0.0000000000000000   F   F   F
  6.7175144212722016  5.4297022631693759  0.0000000000000000   F   F   F
  9.4045201897810831  5.4297022631693759  0.0000000000000000   F   F   F
  0.0000000000000000  1.5513435037626788  2.1939310229205775   F   F   F
  2.6870057685088811  1.5513435037626788  2.1939310229205775   F   F   F
  5.3740115370177612  1.5513435037626788  2.1939310229205775   F   F   F
  1.3435028842544401  3.8783587594066966  2.1939310229205775   F   F   F
  4.0305086527633209  3.8783587594066966  2.1939310229205775   F   F   F
  6.7175144212722016  3.8783587594066966  2.1939310229205775   F   F   F
  2.6870057685088806  6.2053740150507153  2.1939310229205775   F   F   F
  5.3740115370177612  6.2053740150507153  2.1939310229205775   F   F   F
  8.0610173055266419  6.2053740150507153  2.1939310229205775   F   F   F
  0.0000000000000000  0.0000000000000000  4.3878620458411541   F   F   F
  2.6870057685088806  0.0000000000000000  4.3878620458411541   F   F   F
  5.3740115370177612  0.0000000000000000  4.3878620458411541   F   F   F
  1.3435028842544403  2.3270152556440182  4.3878620458411541   F   F   F
  4.0305086527633209  2.3270152556440182  4.3878620458411541   F   F   F
  6.7175144212722016  2.3270152556440182  4.3878620458411541   F   F   F
  2.6870057685088806  4.6540305112880365  4.3878620458411541   F   F   F
  5.3740115370177612  4.6540305112880365  4.3878620458411541   F   F   F
  8.0610173055266419  4.6540305112880365  4.3878620458411541   F   F   F
  4.0305086527633209  3.8783587594066966  7.4878620458411547   T   T   T
  5.2065086527633211  3.8783587594066966  7.4878620458411547   T   T   T
  2.8545086527633208  3.8783587594066966  7.4878620458411547   T   T   T
